# Solution for model r10_t18_m1_1
# Finished Task: 18 / 18
# Makespan: 526.0, Total Distance: 1165.0, Total Time: 0.1048
# R O S F
0 0 24 0.0 0.0
1 1 10 0.0 0.0
2 2 15 0.0 0.0
3 3 16 0.0 0.0
4 4 17 0.0 0.0
5 5 21 0.0 0.0
6 6 26 0.0 0.0
7 7 13 0.0 0.0
8 8 14 0.0 0.0
9 9 18 0.0 0.0
10 1 23 219.0 253.0
11 3 20 329.0 368.0
12 6 -1 353.0 386.0
13 7 -1 309.0 341.0
14 8 -1 364.0 388.0
15 2 -1 326.0 365.0
16 3 11 261.0 297.0
17 4 25 202.0 237.0
18 9 19 177.0 207.0
19 9 -1 308.0 337.0
20 3 -1 449.0 481.0
21 5 -1 345.0 376.0
22 0 -1 498.0 521.0
23 1 27 373.0 412.0
24 0 22 296.0 329.0
25 4 -1 294.0 329.0
26 6 12 300.0 339.0
27 1 -1 492.0 526.0
